input: C:\Users\ofer.guthmann\Documents\HSmtMuc\results\res_prop_muc\res_Cimatti_mathsat_cores\QF_LRA\tgc_io-nosafe-4.smt.cnf
### time 0.014
Summary: 26 156 19 746 137 0 74
### lpf_literals 74
### UNSAT_by_pf 0
### iter 26
### true_assump_ratio 0.402174
### nettime 0.004
### longestcall 0.001
v 1 2 3 4 6 7 11 17 18 19 20 21 22 24 25 26 27 28 29 30 31 32 36 37 38 39 40 44 45 46 47 48 49 50 51 52 54 55 56 57 59 60 61 63 64 65 66 67 68 70 71 72 73 74 75 77 79 80 81 82 83 84 85 86 87 88 91 92 94 95 96 97 98 99 101 102 103 104 105 106 108 109 110 111 112 115 116 117 118 120 122 123 278 281 284 287 288 289 472 473 474 584 585 586 588 611 616 619 620 621 650 659 660 661 663 670 672 674 679 681 686 791 802 804 1091 1092 1149 1188 1192 1193 1222 1337 1340 1343 1346 1347 1348 1537 1538 1539 1540 1588 1589 1591 1654 1677 1686 1687 1694 1696 2065 2086 2125 2129 2130 2159 0
### decisions 10681
### pf_time 0
s UNSATISFIABLE
